0 0 15 
1 0 22 
2 0 29 
3 0 42 
4 0 43 
5 0 44 
6 0 45 
7 0 46 
8 0 47 
9 0 48 
10 0 49 
11 0 50 
12 0 51 
13 0 8 
14 0 81 
15 2 31 
16 2 32 
17 2 38 
18 2 39 
19 2 45 
20 2 46 
21 2 49 
22 2 51 
23 2 53 
24 2 55 
25 2 58 
26 2 60 
27 2 62 
28 2 63 
29 2 65 
30 2 67 
31 2 70 
32 2 72 
33 2 74 
34 2 76 
35 5 59 
36 5 8 
37 5 80 
38 5 84 
39 8 56 
40 8 77 
41 9 49 
42 9 57 
43 9 70 
44 10 57 
45 11 10 
46 11 57 
47 11 67 
48 11 78 
49 12 5 
50 12 56 
51 12 77 
52 15 56 
53 15 77 
54 15 8 
55 17 31 
56 17 39 
57 17 45 
58 17 63 
59 17 64 
60 17 65 
61 18 30 
62 18 38 
63 18 46 
64 18 67 
65 25 10 
66 25 16 
67 25 17 
68 25 19 
69 25 21 
70 25 24 
71 25 37 
72 25 38 
73 25 42 
74 25 44 
75 25 54 
76 25 56 
77 25 58 
78 25 68 
79 25 69 
80 25 70 
81 25 83 
82 25 89 
83 26 39 
84 28 15 
85 28 25 
86 28 42 
87 28 45 
88 28 49 
89 28 55 
90 28 59 
91 28 63 
92 28 75 
93 28 80 
94 32 46 
95 32 53 
96 32 60 
97 32 72 
98 33 24 
99 33 41 
100 33 44 
101 33 46 
102 33 53 
103 33 58 
104 33 60 
105 33 72 
106 34 13 
107 34 21 
108 34 24 
109 34 26 
110 34 41 
111 34 44 
112 34 46 
113 34 53 
114 34 58 
115 34 60 
116 34 72 
117 34 79 
118 35 46 
119 35 60 
120 35 72 
121 38 25 
122 38 42 
123 38 45 
124 38 49 
125 38 59 
126 38 63 
127 38 75 
128 38 80 
129 40 17 
130 40 18 
131 40 19 
132 40 68 
133 40 83 
134 41 10 
135 41 21 
136 41 36 
137 41 39 
138 41 47 
139 41 48 
140 41 50 
141 41 51 
142 41 61 
143 41 62 
144 41 64 
145 41 65 
146 41 69 
147 41 73 
148 41 74 
149 41 76 
150 41 77 
151 48 11 
152 48 15 
153 48 17 
154 48 19 
155 48 21 
156 48 23 
157 48 25 
158 48 28 
159 48 30 
160 48 32 
161 48 34 
162 48 36 
163 48 38 
164 48 40 
165 48 41 
166 48 43 
167 48 45 
168 48 47 
169 48 50 
170 48 51 
171 48 52 
172 48 53 
173 48 56 
174 48 59 
175 48 60 
176 48 62 
177 48 64 
178 48 66 
179 48 69 
180 48 72 
181 48 73 
182 48 75 
183 48 77 
184 51 11 
185 51 13 
186 51 16 
187 51 20 
188 51 24 
189 51 29 
190 51 33 
191 51 37 
192 51 56 
193 51 58 
194 51 69 
195 51 71 
196 51 8 
197 51 82 
198 55 14 
199 55 27 
200 56 10 
201 56 14 
202 56 27 
203 56 55 
204 56 68 
205 57 10 
206 57 14 
207 57 27 
208 57 45 
209 57 55 
210 57 64 
211 57 68 
212 57 77 
213 57 80 
214 58 5 
215 60 89 
216 61 0 
217 61 11 
218 61 13 
219 61 56 
220 61 58 
221 61 69 
222 61 71 
223 61 8 
224 61 89 
225 62 89 
226 63 41 
227 63 42 
228 63 43 
229 63 50 
230 63 51 
231 63 52 
232 63 53 
233 63 60 
234 63 61 
235 63 62 
236 63 73 
237 63 74 
238 63 75 
239 64 77 
240 71 21 
241 71 22 
242 71 36 
243 71 37 
244 71 46 
245 71 48 
246 71 51 
247 71 53 
248 71 56 
249 71 58 
250 71 6 
251 71 60 
252 71 61 
253 71 64 
254 71 65 
255 71 72 
256 71 73 
257 71 74 
258 72 23 
259 72 38 
260 74 41 
261 74 43 
262 74 47 
263 74 52 
264 74 56 
265 74 61 
266 74 65 
267 74 68 
268 74 83 
269 77 58 
270 78 45 
271 78 50 
272 78 58 
273 78 61 
274 78 65 
275 78 71 
276 79 45 
277 79 50 
278 79 55 
279 79 59 
280 79 63 
281 80 10 
282 80 25 
283 80 40 
284 80 45 
285 80 50 
286 80 55 
287 80 58 
288 80 67 
289 80 75 
290 81 80 
291 84 41 
292 84 43 
293 84 56 
294 84 60 
295 84 64 
296 84 68 
297 84 83 
298 86 6 
299 87 20 
300 87 23 
301 87 35 
302 87 38 
303 94 19 
304 94 45 
305 94 46 
306 94 48 
307 94 50 
308 94 55 
309 94 57 
310 94 59 
311 94 61 
312 94 63 
313 94 65 
314 94 67 
315 94 69 
316 94 71 
317 94 73 
318 94 76 
319 94 78 
320 97 11 
321 97 15 
322 97 20 
323 97 24 
324 97 32 
325 97 40 
326 97 7 
327 97 77 
328 97 83 
329 100 28 
330 100 34 
331 100 42 
332 101 12 
333 101 21 
334 101 28 
335 101 34 
336 101 42 
337 101 75 
338 102 12 
339 102 19 
340 102 21 
341 102 28 
342 102 34 
343 102 42 
344 102 75 
345 103 12 
346 103 19 
347 103 21 
348 103 28 
349 103 35 
350 103 43 
351 103 5 
352 103 50 
353 103 59 
354 103 66 
355 103 67 
356 103 74 
357 103 75 
358 104 12 
359 104 21 
360 104 28 
361 104 80 
362 107 15 
363 107 20 
364 107 24 
365 107 66 
366 107 74 
367 107 83 
368 108 0 
369 108 89 
370 109 46 
371 109 47 
372 109 48 
373 109 55 
374 109 57 
375 110 13 
376 110 14 
377 110 16 
378 110 17 
379 110 22 
380 110 23 
381 110 25 
382 110 26 
383 110 29 
384 110 30 
385 110 32 
386 110 33 
387 110 34 
388 110 37 
389 110 38 
390 110 40 
391 110 41 
392 110 42 
393 110 50 
394 122 45 
